<number of tasks>
28

<cycle time>
205

<task times>
1 70
2 59
3 33
4 6
5 1
6 27
7 17
8 62
9 31
10 53
11 21
12 19
13 108
14 52
15 5
16 8
17 97
18 8
19 47
20 67
21 17
22 8
23 3
24 21
25 107
26 3
27 2
28 72

<precedence relations>
1,2
1,3
1,4
1,5
1,8
1,19
1,21
1,22
1,23
1,24
1,26
2,6
2,17
3,28
4,28
5,28
6,7
7,18
8,9
9,10
10,11
10,12
11,15
12,13
13,14
13,16
14,28
15,28
16,28
17,28
18,28
19,20
20,28
21,28
22,28
23,28
24,25
25,28
26,27
27,28

<setup times forward>
1,3:7
1,5:3
1,19:7
1,21:3
1,23:2
1,24:7
1,26:3
2,3:7
2,5:3
2,6:3
2,9:7
2,10:7
2,11:3
2,12:7
2,13:3
2,14:3
2,15:2
2,16:2
2,17:3
2,19:7
2,20:3
2,21:3
2,23:2
2,24:7
2,25:2
2,26:3
2,27:2
3,2:7
3,4:7
3,5:4
3,6:10
3,7:4
3,8:7
3,11:4
3,13:10
3,14:4
3,15:5
3,16:5
3,17:4
3,18:5
3,20:10
3,21:4
3,22:7
3,23:5
3,25:5
3,26:10
3,27:5
3,28:5
4,3:7
4,5:3
4,6:3
4,7:3
4,9:7
4,10:7
4,11:3
4,12:7
4,13:3
4,14:3
4,15:2
4,16:2
4,17:3
4,18:2
4,19:7
4,20:3
4,21:3
4,23:2
4,24:7
4,25:2
4,26:3
4,27:2
4,28:2
5,2:3
5,3:4
5,4:3
5,6:6
5,8:3
5,9:4
5,10:4
5,12:4
5,13:6
5,15:1
5,16:1
5,18:1
5,19:4
5,20:6
5,22:3
5,23:1
5,24:4
5,25:1
5,26:6
5,27:1
5,28:1
6,3:10
6,4:3
6,5:6
6,7:6
6,8:3
6,9:10
6,10:10
6,11:6
6,12:10
6,14:6
6,15:5
6,16:5
6,17:6
6,19:10
6,21:6
6,22:3
6,23:5
6,24:10
6,25:5
6,27:5
7,3:4
7,4:3
7,8:3
7,9:4
7,10:4
7,12:4
7,13:6
7,15:1
7,16:1
7,18:1
7,19:4
7,20:6
7,22:3
7,23:1
7,24:4
7,25:1
7,26:6
7,27:1
8,3:7
8,5:3
8,6:3
8,7:3
8,9:7
8,17:3
8,18:2
8,19:7
8,20:3
8,21:3
8,23:2
8,24:7
8,25:2
8,26:3
8,27:2
9,2:7
9,4:7
9,5:4
9,6:10
9,7:4
9,17:4
9,18:5
9,20:10
9,21:4
9,22:7
9,23:5
9,25:5
9,26:10
9,27:5
10,2:7
10,4:7
10,5:4
10,6:10
10,7:4
10,11:4
10,17:4
10,18:5
10,20:10
10,21:4
10,22:7
10,23:5
10,25:5
10,26:10
10,27:5
11,2:3
11,3:4
11,4:3
11,6:6
11,12:4
11,13:6
11,15:1
11,16:1
11,18:1
11,19:4
11,20:6
11,22:3
11,23:1
11,24:4
11,25:1
11,26:6
11,27:1
12,2:7
12,4:7
12,5:4
12,6:10
12,7:4
12,11:4
12,13:10
12,15:5
12,17:4
12,18:5
12,20:10
12,21:4
12,22:7
12,23:5
12,25:5
12,26:10
12,27:5
13,2:3
13,3:10
13,4:3
13,5:6
13,7:6
13,11:6
13,14:6
13,15:5
13,16:5
13,17:6
13,18:5
13,19:10
13,21:6
13,22:3
13,23:5
13,24:10
13,25:5
13,27:5
14,2:3
14,3:4
14,4:3
14,6:6
14,15:1
14,16:1
14,18:1
14,19:4
14,20:6
14,22:3
14,23:1
14,24:4
14,25:1
14,26:6
14,27:1
14,28:1
15,2:2
15,3:5
15,4:2
15,5:1
15,6:5
15,7:1
15,12:5
15,13:5
15,14:1
15,17:1
15,19:5
15,20:5
15,21:1
15,22:2
15,24:5
15,26:5
16,2:2
16,3:5
16,4:2
16,5:1
16,6:5
16,7:1
16,11:1
16,14:1
16,17:1
16,19:5
16,20:5
16,21:1
16,22:2
16,24:5
16,26:5
17,3:4
17,4:3
17,6:6
17,8:3
17,9:4
17,10:4
17,12:4
17,13:6
17,15:1
17,16:1
17,18:1
17,19:4
17,20:6
17,22:3
17,23:1
17,24:4
17,25:1
17,26:6
17,27:1
17,28:1
18,3:5
18,4:2
18,5:1
18,8:2
18,9:5
18,10:5
18,11:1
18,12:5
18,13:5
18,14:1
18,17:1
18,19:5
18,20:5
18,21:1
18,22:2
18,24:5
18,26:5
19,2:7
19,4:7
19,5:4
19,6:10
19,7:4
19,8:7
19,11:4
19,13:10
19,14:4
19,15:5
19,16:5
19,17:4
19,18:5
19,20:10
19,21:4
19,22:7
19,23:5
19,25:5
19,26:10
19,27:5
20,2:3
20,3:10
20,4:3
20,5:6
20,7:6
20,8:3
20,9:10
20,10:10
20,11:6
20,12:10
20,14:6
20,15:5
20,16:5
20,17:6
20,18:5
20,21:6
20,22:3
20,23:5
20,24:10
20,25:5
20,27:5
20,28:5
21,2:3
21,3:4
21,4:3
21,6:6
21,8:3
21,9:4
21,10:4
21,12:4
21,13:6
21,15:1
21,16:1
21,18:1
21,19:4
21,20:6
21,22:3
21,23:1
21,24:4
21,25:1
21,26:6
21,27:1
21,28:1
22,3:7
22,5:3
22,6:3
22,7:3
22,9:7
22,10:7
22,11:3
22,12:7
22,13:3
22,14:3
22,15:2
22,16:2
22,17:3
22,18:2
22,19:7
22,20:3
22,21:3
22,23:2
22,24:7
22,25:2
22,26:3
22,27:2
22,28:2
23,2:2
23,3:5
23,4:2
23,5:1
23,6:5
23,7:1
23,8:2
23,9:5
23,10:5
23,11:1
23,12:5
23,13:5
23,14:1
23,17:1
23,19:5
23,20:5
23,21:1
23,22:2
23,24:5
23,26:5
24,2:7
24,4:7
24,5:4
24,6:10
24,7:4
24,8:7
24,11:4
24,13:10
24,14:4
24,15:5
24,16:5
24,17:4
24,18:5
24,20:10
24,21:4
24,22:7
24,23:5
24,25:5
24,26:10
24,27:5
25,2:2
25,3:5
25,4:2
25,5:1
25,6:5
25,7:1
25,8:2
25,9:5
25,10:5
25,11:1
25,12:5
25,13:5
25,14:1
25,17:1
25,19:5
25,20:5
25,21:1
25,22:2
25,26:5
26,2:3
26,3:10
26,4:3
26,5:6
26,7:6
26,8:3
26,9:10
26,10:10
26,11:6
26,12:10
26,14:6
26,15:5
26,16:5
26,17:6
26,18:5
26,19:10
26,21:6
26,22:3
26,23:5
26,24:10
26,25:5
26,27:5
27,2:2
27,3:5
27,4:2
27,5:1
27,6:5
27,7:1
27,8:2
27,9:5
27,10:5
27,11:1
27,12:5
27,13:5
27,14:1
27,17:1
27,19:5
27,20:5
27,21:1
27,22:2
27,24:5

<setup times backward>
2,13:3
2,20:3
2,26:3
3,1:7
3,2:7
3,4:7
3,5:4
3,6:10
3,7:4
3,8:7
3,11:4
3,13:10
3,14:4
3,15:5
3,16:5
3,17:4
3,18:5
3,20:10
3,21:4
3,22:7
3,23:5
3,25:5
3,26:10
3,27:5
4,6:3
4,13:3
4,20:3
4,26:3
5,1:3
5,2:3
5,4:3
5,6:6
5,8:3
5,13:6
5,15:1
5,16:1
5,18:1
5,20:6
5,22:3
5,23:1
5,25:1
5,26:6
5,27:1
7,1:3
7,2:3
7,4:3
7,6:6
7,8:3
7,13:6
7,15:1
7,16:1
7,20:6
7,22:3
7,23:1
7,25:1
7,26:6
7,27:1
8,6:3
8,20:3
8,26:3
9,1:7
9,2:7
9,4:7
9,5:4
9,6:10
9,7:4
9,8:7
9,17:4
9,18:5
9,20:10
9,21:4
9,22:7
9,23:5
9,25:5
9,26:10
9,27:5
10,1:7
10,2:7
10,4:7
10,5:4
10,6:10
10,7:4
10,8:7
10,17:4
10,18:5
10,20:10
10,21:4
10,22:7
10,23:5
10,25:5
10,26:10
10,27:5
11,1:3
11,2:3
11,4:3
11,6:6
11,8:3
11,13:6
11,16:1
11,18:1
11,20:6
11,22:3
11,23:1
11,25:1
11,26:6
11,27:1
12,1:7
12,2:7
12,4:7
12,5:4
12,6:10
12,7:4
12,8:7
12,11:4
12,15:5
12,17:4
12,18:5
12,20:10
12,21:4
12,22:7
12,23:5
12,25:5
12,26:10
12,27:5
14,1:3
14,2:3
14,4:3
14,6:6
14,8:3
14,13:6
14,15:1
14,16:1
14,18:1
14,20:6
14,22:3
14,23:1
14,25:1
14,26:6
14,27:1
15,1:2
15,2:2
15,4:2
15,6:5
15,8:2
15,13:5
15,20:5
15,22:2
15,26:5
16,1:2
16,2:2
16,4:2
16,6:5
16,8:2
16,13:5
16,20:5
16,22:2
16,26:5
17,1:3
17,2:3
17,4:3
17,6:6
17,8:3
17,13:6
17,15:1
17,16:1
17,18:1
17,20:6
17,22:3
17,23:1
17,25:1
17,26:6
17,27:1
18,1:2
18,2:2
18,4:2
18,6:5
18,8:2
18,13:5
18,20:5
18,22:2
18,26:5
19,1:7
19,2:7
19,4:7
19,5:4
19,6:10
19,7:4
19,8:7
19,11:4
19,13:10
19,14:4
19,15:5
19,16:5
19,17:4
19,18:5
19,21:4
19,22:7
19,23:5
19,25:5
19,26:10
19,27:5
21,1:3
21,2:3
21,4:3
21,6:6
21,8:3
21,13:6
21,15:1
21,16:1
21,18:1
21,20:6
21,22:3
21,23:1
21,25:1
21,26:6
21,27:1
22,6:3
22,13:3
22,20:3
22,26:3
23,1:2
23,2:2
23,4:2
23,6:5
23,8:2
23,13:5
23,20:5
23,22:2
23,26:5
24,1:7
24,2:7
24,4:7
24,5:4
24,6:10
24,7:4
24,8:7
24,11:4
24,13:10
24,14:4
24,15:5
24,16:5
24,17:4
24,18:5
24,20:10
24,21:4
24,22:7
24,23:5
24,26:10
24,27:5
25,1:2
25,2:2
25,4:2
25,6:5
25,8:2
25,13:5
25,20:5
25,22:2
25,26:5
27,1:2
27,2:2
27,4:2
27,6:5
27,8:2
27,13:5
27,20:5
27,22:2
27,26:5
28,1:2
28,2:2
28,4:2
28,6:5
28,8:2
28,13:5
28,20:5
28,22:2
28,26:5

<end>

<optimal SALBP-1 value>
5


<rand seed>
467321153

